decision_x1=[0,7];
decision_x2=[0,7];
decision_x3=[0,7];
decision_x4=[0,7];
decision_x5=[0,7];
decision_x6=[0,7];
decision_x7=[0,7];
decision_x8=[0,7];
decision_x9=[0,7];
decision_x10=[0,7];
decision_x11=[0,7];
decision_x12=[0,7];
decision_x13=[0,7];
decision_x14=[0,7];
random_y1=[0,7];
random_y2=[0,7];
random_y3=[0,7];
random_y4=[0,7];
random_y5=[0,7];
random_y6=[0,7];
constraint_x2_x1=[
0,0,5.5|
0,1,8.1|
0,2,0.2|
0,3,5.3|
0,4,8.1|
0,5,4.1|
0,6,8.7|
0,7,6.5|
1,0,2.1|
1,1,6.6|
1,2,6.3|
1,3,0.79|
1,4,7.9|
1,5,4.9|
1,6,2.9|
1,7,9.3|
2,0,6|
2,1,2.2|
2,2,4.3|
2,3,9.7|
2,4,6.6|
2,5,7.8|
2,6,0.91|
2,7,9.3|
3,0,3.8|
3,1,2.4|
3,2,6.4|
3,3,8.6|
3,4,8.5|
3,5,2.5|
3,6,9.2|
3,7,6.7|
4,0,0.66|
4,1,9.7|
4,2,1.3|
4,3,6.4|
4,4,0.84|
4,5,0.48|
4,6,5.2|
4,7,1.2|
5,0,5|
5,1,7.2|
5,2,5.4|
5,3,1.4|
5,4,6.1|
5,5,7.5|
5,6,3.7|
5,7,9.7|
6,0,9.4|
6,1,3|
6,2,3|
6,3,3.7|
6,4,9.7|
6,5,0.027|
6,6,7.6|
6,7,7.9|
7,0,7.4|
7,1,4|
7,2,0.34|
7,3,8.1|
7,4,4.6|
7,5,7|
7,6,3.6|
7,7,8.5|
];
constraint_x3_x2=[
0,0,7.2|
0,1,7.8|
0,2,4.5|
0,3,2.6|
0,4,0.025|
0,5,9.6|
0,6,0.75|
0,7,5.5|
1,0,6.8|
1,1,8.3|
1,2,1.2|
1,3,5.4|
1,4,6.4|
1,5,7.8|
1,6,2.5|
1,7,7.4|
2,0,4|
2,1,0.95|
2,2,3.7|
2,3,1.9|
2,4,3.2|
2,5,3.7|
2,6,9|
2,7,8.7|
3,0,2.7|
3,1,0.79|
3,2,9.3|
3,3,2.7|
3,4,0.4|
3,5,8.7|
3,6,7.2|
3,7,1.5|
4,0,0.53|
4,1,9.9|
4,2,9.5|
4,3,1.7|
4,4,0.45|
4,5,5.9|
4,6,4.7|
4,7,7.5|
5,0,8.8|
5,1,9.4|
5,2,5.4|
5,3,9|
5,4,0.97|
5,5,0.54|
5,6,1.7|
5,7,7.3|
6,0,7.8|
6,1,7.1|
6,2,0.68|
6,3,1.5|
6,4,7.6|
6,5,5.6|
6,6,3.6|
6,7,7|
7,0,8.6|
7,1,4.7|
7,2,7.3|
7,3,5.1|
7,4,8.2|
7,5,5.2|
7,6,6.7|
7,7,0.9|
];
constraint_x4_x3=[
0,0,5.1|
0,1,9.6|
0,2,9.9|
0,3,8|
0,4,5.5|
0,5,1.5|
0,6,0.059|
0,7,1.1|
1,0,6.6|
1,1,2.2|
1,2,0.7|
1,3,2.2|
1,4,7.8|
1,5,0.3|
1,6,2.8|
1,7,4|
2,0,1.7|
2,1,4.5|
2,2,10|
2,3,0.26|
2,4,2.1|
2,5,3.1|
2,6,3.3|
2,7,1.2|
3,0,2|
3,1,5.3|
3,2,5.9|
3,3,8.6|
3,4,6.6|
3,5,4.6|
3,6,3.7|
3,7,9.2|
4,0,5.9|
4,1,7|
4,2,8.8|
4,3,2.1|
4,4,7.6|
4,5,6.3|
4,6,6.4|
4,7,4.3|
5,0,8|
5,1,7.7|
5,2,7.1|
5,3,5.9|
5,4,6.1|
5,5,8.8|
5,6,6.2|
5,7,0.74|
6,0,3.8|
6,1,9|
6,2,6.4|
6,3,8.2|
6,4,3.3|
6,5,2.5|
6,6,8.7|
6,7,1.6|
7,0,8.1|
7,1,7|
7,2,8.2|
7,3,9.3|
7,4,7.2|
7,5,7.7|
7,6,8.8|
7,7,2.6|
];
constraint_x5_x1=[
0,0,9|
0,1,2|
0,2,8.1|
0,3,1.3|
0,4,3.7|
0,5,9|
0,6,8|
0,7,5.2|
1,0,6.2|
1,1,2.4|
1,2,0.89|
1,3,4|
1,4,4.3|
1,5,0.28|
1,6,1.6|
1,7,0.22|
2,0,3.4|
2,1,0.95|
2,2,4.9|
2,3,4.5|
2,4,6.7|
2,5,1.8|
2,6,9.4|
2,7,9.1|
3,0,8.5|
3,1,8.1|
3,2,6.4|
3,3,5.6|
3,4,5.3|
3,5,7.6|
3,6,9.5|
3,7,3.1|
4,0,0.53|
4,1,2.1|
4,2,8.7|
4,3,6.9|
4,4,9|
4,5,4.4|
4,6,6.4|
4,7,9.4|
5,0,9.7|
5,1,5.6|
5,2,4.4|
5,3,7.2|
5,4,2.1|
5,5,6.5|
5,6,4.3|
5,7,1.9|
6,0,3.9|
6,1,8.4|
6,2,0.61|
6,3,7.5|
6,4,4.6|
6,5,8.8|
6,6,2.8|
6,7,5.1|
7,0,4.2|
7,1,5.4|
7,2,2.4|
7,3,8.7|
7,4,8.9|
7,5,2.5|
7,6,9.6|
7,7,3|
];
constraint_x6_x2=[
0,0,9|
0,1,9.8|
0,2,3.7|
0,3,7|
0,4,7.2|
0,5,6.8|
0,6,2.5|
0,7,3.8|
1,0,0.51|
1,1,5.1|
1,2,7.4|
1,3,8.2|
1,4,3.9|
1,5,5|
1,6,3.9|
1,7,3.2|
2,0,7.6|
2,1,3.6|
2,2,0.4|
2,3,2.7|
2,4,8.3|
2,5,4.6|
2,6,3.1|
2,7,8.4|
3,0,5.8|
3,1,2.9|
3,2,8.3|
3,3,5.3|
3,4,2.6|
3,5,3.8|
3,6,8.3|
3,7,8.4|
4,0,9.5|
4,1,1.4|
4,2,7|
4,3,9.4|
4,4,1.1|
4,5,6.2|
4,6,5.9|
4,7,6.3|
5,0,8.6|
5,1,3.1|
5,2,6.5|
5,3,7|
5,4,9.5|
5,5,4|
5,6,6.1|
5,7,3.8|
6,0,7.2|
6,1,7.4|
6,2,4.5|
6,3,3.6|
6,4,8.2|
6,5,7.5|
6,6,0.37|
6,7,4.2|
7,0,9.7|
7,1,6.4|
7,2,2.3|
7,3,5.5|
7,4,4.9|
7,5,3.9|
7,6,8.8|
7,7,2.5|
];
constraint_x6_x5=[
0,0,4.3|
0,1,5.8|
0,2,3.9|
0,3,2.7|
0,4,8.2|
0,5,0.72|
0,6,3.9|
0,7,6.5|
1,0,5|
1,1,5.7|
1,2,1.1|
1,3,9.7|
1,4,7.1|
1,5,5.1|
1,6,9.8|
1,7,3.1|
2,0,3|
2,1,5.4|
2,2,9.1|
2,3,9.6|
2,4,3.9|
2,5,3.4|
2,6,3.9|
2,7,1.1|
3,0,0.12|
3,1,5.3|
3,2,3.3|
3,3,1.4|
3,4,8.1|
3,5,1.6|
3,6,3.6|
3,7,7|
4,0,8|
4,1,4.3|
4,2,8.1|
4,3,0.41|
4,4,2.9|
4,5,7|
4,6,7|
4,7,5.6|
5,0,2.9|
5,1,8.2|
5,2,5.6|
5,3,7.2|
5,4,0.3|
5,5,9.3|
5,6,1.9|
5,7,3|
6,0,7.4|
6,1,3.1|
6,2,7.3|
6,3,4.1|
6,4,3.4|
6,5,3.2|
6,6,9|
6,7,7.4|
7,0,3.1|
7,1,4.3|
7,2,8.2|
7,3,7.7|
7,4,0.14|
7,5,3.8|
7,6,0.32|
7,7,1.6|
];
constraint_x7_x3=[
0,0,8.8|
0,1,1.9|
0,2,1.9|
0,3,8.6|
0,4,3.7|
0,5,4.7|
0,6,0.42|
0,7,5.6|
1,0,4.5|
1,1,3.1|
1,2,2.9|
1,3,9.6|
1,4,9.3|
1,5,6.6|
1,6,2.8|
1,7,1.6|
2,0,4.6|
2,1,3.6|
2,2,0.25|
2,3,0.91|
2,4,2.9|
2,5,0.85|
2,6,3.2|
2,7,2.8|
3,0,5.9|
3,1,7.4|
3,2,8.6|
3,3,8.5|
3,4,9.9|
3,5,0.69|
3,6,2.6|
3,7,2.3|
4,0,8.3|
4,1,9.9|
4,2,5.3|
4,3,1.4|
4,4,8|
4,5,5.8|
4,6,2.8|
4,7,8.2|
5,0,6.3|
5,1,1.3|
5,2,9.8|
5,3,3.2|
5,4,6.8|
5,5,3.2|
5,6,7.5|
5,7,1.1|
6,0,3.4|
6,1,2.3|
6,2,4|
6,3,4.8|
6,4,7.5|
6,5,9|
6,6,6.2|
6,7,2.5|
7,0,0.37|
7,1,5|
7,2,3.1|
7,3,2.2|
7,4,3.4|
7,5,0.068|
7,6,0.34|
7,7,9.4|
];
constraint_x7_x6=[
0,0,5.2|
0,1,2.8|
0,2,4.3|
0,3,5.7|
0,4,9.7|
0,5,1.8|
0,6,4.2|
0,7,4.6|
1,0,5.3|
1,1,5.6|
1,2,0.48|
1,3,9.5|
1,4,8.6|
1,5,2.8|
1,6,9.7|
1,7,5.9|
2,0,4.5|
2,1,2.5|
2,2,5.4|
2,3,1.6|
2,4,6.8|
2,5,1.7|
2,6,9|
2,7,0.71|
3,0,9.4|
3,1,0.63|
3,2,0.63|
3,3,0.69|
3,4,5.2|
3,5,6.8|
3,6,3.5|
3,7,9.2|
4,0,0.44|
4,1,4.5|
4,2,3.1|
4,3,5.6|
4,4,4.1|
4,5,9.7|
4,6,3.6|
4,7,4.1|
5,0,8.9|
5,1,7.1|
5,2,5.4|
5,3,2.3|
5,4,3.8|
5,5,7|
5,6,5.4|
5,7,6|
6,0,6.2|
6,1,5.9|
6,2,4.5|
6,3,8.2|
6,4,7.6|
6,5,1.4|
6,6,1.1|
6,7,4.4|
7,0,8.9|
7,1,7.1|
7,2,6.6|
7,3,2.5|
7,4,9.9|
7,5,6.6|
7,6,3.7|
7,7,3.7|
];
constraint_x8_x4=[
0,0,5.1|
0,1,0.96|
0,2,3.5|
0,3,8.2|
0,4,5.4|
0,5,3.3|
0,6,5.3|
0,7,9.5|
1,0,7.7|
1,1,3.1|
1,2,8.7|
1,3,8|
1,4,7.6|
1,5,9.2|
1,6,3.5|
1,7,9.6|
2,0,8.9|
2,1,7.8|
2,2,1.9|
2,3,2|
2,4,5.6|
2,5,8.6|
2,6,6.9|
2,7,1.4|
3,0,1.5|
3,1,4.9|
3,2,8.2|
3,3,7.8|
3,4,7.1|
3,5,4.3|
3,6,2.4|
3,7,4.2|
4,0,8.4|
4,1,0.53|
4,2,8.5|
4,3,8.3|
4,4,2.4|
4,5,1.9|
4,6,2.7|
4,7,4.3|
5,0,7.7|
5,1,3.4|
5,2,9.8|
5,3,6.1|
5,4,1.9|
5,5,9.5|
5,6,7.7|
5,7,1.2|
6,0,1.4|
6,1,2.6|
6,2,6.1|
6,3,1.9|
6,4,1.1|
6,5,0.35|
6,6,9.1|
6,7,9.7|
7,0,3|
7,1,9.3|
7,2,7.9|
7,3,9.5|
7,4,5.5|
7,5,4.4|
7,6,6.7|
7,7,5.1|
];
constraint_x8_x7=[
0,0,3|
0,1,5.4|
0,2,2|
0,3,8.5|
0,4,3.6|
0,5,6.4|
0,6,6.5|
0,7,3.6|
1,0,0.79|
1,1,8.3|
1,2,0.51|
1,3,3.3|
1,4,9.5|
1,5,2.7|
1,6,0.15|
1,7,0.24|
2,0,4.8|
2,1,3.7|
2,2,4.9|
2,3,9.9|
2,4,2.5|
2,5,6.7|
2,6,6|
2,7,9|
3,0,7.3|
3,1,2.1|
3,2,5.3|
3,3,5.2|
3,4,0.54|
3,5,3.5|
3,6,5.5|
3,7,4.6|
4,0,3|
4,1,2|
4,2,2.2|
4,3,2.3|
4,4,6.7|
4,5,4.7|
4,6,4.3|
4,7,5.6|
5,0,0.22|
5,1,2.1|
5,2,9.3|
5,3,1.7|
5,4,9.9|
5,5,9.2|
5,6,2.1|
5,7,5.7|
6,0,5.9|
6,1,9.8|
6,2,2.2|
6,3,2.3|
6,4,5.6|
6,5,7.9|
6,6,6.1|
6,7,1.4|
7,0,1.2|
7,1,4.7|
7,2,6.3|
7,3,2.4|
7,4,0.67|
7,5,9.6|
7,6,7.8|
7,7,3.8|
];
constraint_x9_x5=[
0,0,6|
0,1,1.2|
0,2,8.3|
0,3,7.7|
0,4,4.9|
0,5,0.89|
0,6,3.6|
0,7,2|
1,0,6.4|
1,1,5.8|
1,2,0.22|
1,3,8.9|
1,4,5.9|
1,5,5.8|
1,6,3|
1,7,6.3|
2,0,3.1|
2,1,2.7|
2,2,7|
2,3,7.8|
2,4,4.1|
2,5,9.3|
2,6,6.5|
2,7,7.9|
3,0,4.7|
3,1,1.2|
3,2,0.37|
3,3,3.1|
3,4,8.8|
3,5,2|
3,6,2.1|
3,7,1.5|
4,0,0.032|
4,1,0.23|
4,2,1.7|
4,3,5.9|
4,4,0.26|
4,5,6.4|
4,6,5|
4,7,7.8|
5,0,1.8|
5,1,8.8|
5,2,7.3|
5,3,1.7|
5,4,0.55|
5,5,3.3|
5,6,7.1|
5,7,0.78|
6,0,2.4|
6,1,5.2|
6,2,7.7|
6,3,1.7|
6,4,9.2|
6,5,4.2|
6,6,3.2|
6,7,0.71|
7,0,6.6|
7,1,3.7|
7,2,0.5|
7,3,6.8|
7,4,5.6|
7,5,3.2|
7,6,4.2|
7,7,6.6|
];
constraint_x10_x6=[
0,0,3|
0,1,4.6|
0,2,0.62|
0,3,6.2|
0,4,0.54|
0,5,1.6|
0,6,7.5|
0,7,4.7|
1,0,3.8|
1,1,9.9|
1,2,6.7|
1,3,6.1|
1,4,8.3|
1,5,9.1|
1,6,2.3|
1,7,7.3|
2,0,3.8|
2,1,7.8|
2,2,4.3|
2,3,9.6|
2,4,1.4|
2,5,2.9|
2,6,3.1|
2,7,5.5|
3,0,0.78|
3,1,7.4|
3,2,8.2|
3,3,0.91|
3,4,4.1|
3,5,1.4|
3,6,4.2|
3,7,1.1|
4,0,4|
4,1,0.52|
4,2,2|
4,3,1.4|
4,4,5.7|
4,5,2.7|
4,6,4.9|
4,7,7.8|
5,0,9.9|
5,1,10|
5,2,6.3|
5,3,1.3|
5,4,3.5|
5,5,3.6|
5,6,8.9|
5,7,3|
6,0,4.2|
6,1,2.3|
6,2,5|
6,3,8.5|
6,4,9|
6,5,9.8|
6,6,8.9|
6,7,2|
7,0,2.3|
7,1,5.8|
7,2,8.1|
7,3,4.3|
7,4,1.4|
7,5,7.9|
7,6,3.5|
7,7,9.2|
];
constraint_x10_x9=[
0,0,7.9|
0,1,7.2|
0,2,7.3|
0,3,2.2|
0,4,0.88|
0,5,8.4|
0,6,2.4|
0,7,4.5|
1,0,6.8|
1,1,9.9|
1,2,6.5|
1,3,3.8|
1,4,1.5|
1,5,4.3|
1,6,3.6|
1,7,3.3|
2,0,0.14|
2,1,0.22|
2,2,4.3|
2,3,8.4|
2,4,8|
2,5,7.6|
2,6,7.7|
2,7,7|
3,0,5.9|
3,1,6.7|
3,2,3.8|
3,3,1.3|
3,4,4|
3,5,9.8|
3,6,0.2|
3,7,3.7|
4,0,0.44|
4,1,4.3|
4,2,4.7|
4,3,5.6|
4,4,4.5|
4,5,4.9|
4,6,9.3|
4,7,1.4|
5,0,7.4|
5,1,7.9|
5,2,6.3|
5,3,8|
5,4,7.9|
5,5,0.9|
5,6,9.5|
5,7,2.8|
6,0,1.4|
6,1,3.3|
6,2,0.73|
6,3,1.1|
6,4,6.7|
6,5,4.2|
6,6,9.2|
6,7,5.6|
7,0,1.5|
7,1,2.6|
7,2,1.5|
7,3,9.5|
7,4,7.4|
7,5,2.7|
7,6,1|
7,7,7.6|
];
constraint_x11_x7=[
0,0,9.6|
0,1,7.3|
0,2,7.5|
0,3,2|
0,4,5|
0,5,1.9|
0,6,4.9|
0,7,4.6|
1,0,4.2|
1,1,4.7|
1,2,0.089|
1,3,1.1|
1,4,0.039|
1,5,7|
1,6,6|
1,7,7.5|
2,0,9|
2,1,4.1|
2,2,1.7|
2,3,8.9|
2,4,3|
2,5,3.1|
2,6,0.033|
2,7,6.2|
3,0,2.9|
3,1,1.6|
3,2,0.31|
3,3,5.3|
3,4,0.34|
3,5,1|
3,6,0.047|
3,7,3.8|
4,0,6.4|
4,1,0.13|
4,2,4.1|
4,3,8.4|
4,4,8.3|
4,5,0.29|
4,6,3.6|
4,7,9.7|
5,0,1.4|
5,1,6.7|
5,2,1.8|
5,3,2.7|
5,4,0.44|
5,5,6.2|
5,6,4|
5,7,1.5|
6,0,6.9|
6,1,5.3|
6,2,2.2|
6,3,8|
6,4,6.5|
6,5,3.8|
6,6,7.2|
6,7,8.2|
7,0,0.25|
7,1,2.6|
7,2,9.2|
7,3,8.2|
7,4,1.4|
7,5,5.6|
7,6,4.6|
7,7,6.1|
];
constraint_x11_x10=[
0,0,0.2|
0,1,0.52|
0,2,5.8|
0,3,1.8|
0,4,9.2|
0,5,7.7|
0,6,2.9|
0,7,9.4|
1,0,2.3|
1,1,3.5|
1,2,7.4|
1,3,7.5|
1,4,7.4|
1,5,9.1|
1,6,9|
1,7,8.3|
2,0,7.9|
2,1,8.1|
2,2,8.2|
2,3,3|
2,4,3.2|
2,5,0.79|
2,6,5.5|
2,7,0.16|
3,0,5.2|
3,1,8.4|
3,2,4.1|
3,3,1.4|
3,4,4.7|
3,5,5.6|
3,6,3|
3,7,6.6|
4,0,9.7|
4,1,4.4|
4,2,7.3|
4,3,5.3|
4,4,3.9|
4,5,9.1|
4,6,4|
4,7,7.7|
5,0,0.21|
5,1,9.9|
5,2,4.5|
5,3,3.3|
5,4,3.5|
5,5,2.9|
5,6,6.7|
5,7,2.8|
6,0,3.7|
6,1,2.9|
6,2,6.1|
6,3,4.8|
6,4,9.9|
6,5,4|
6,6,5.5|
6,7,0.98|
7,0,8.1|
7,1,1|
7,2,5|
7,3,5.1|
7,4,0.34|
7,5,3|
7,6,2|
7,7,8.8|
];
constraint_x12_x8=[
0,0,4.3|
0,1,1|
0,2,0.81|
0,3,7.6|
0,4,5.7|
0,5,1.2|
0,6,5.9|
0,7,9.3|
1,0,2.4|
1,1,4.2|
1,2,6.5|
1,3,4.4|
1,4,0.16|
1,5,2.6|
1,6,9.3|
1,7,4.1|
2,0,8.6|
2,1,3.9|
2,2,3.9|
2,3,2|
2,4,0.79|
2,5,6.1|
2,6,3|
2,7,8.5|
3,0,6.5|
3,1,7.1|
3,2,4.3|
3,3,3.5|
3,4,4.1|
3,5,2.5|
3,6,0.6|
3,7,7.5|
4,0,6.8|
4,1,7.5|
4,2,3|
4,3,1.8|
4,4,6.3|
4,5,8.6|
4,6,2.5|
4,7,5.5|
5,0,8.7|
5,1,4.2|
5,2,3.3|
5,3,3.7|
5,4,1.9|
5,5,1.7|
5,6,5.8|
5,7,7.7|
6,0,1.8|
6,1,7.1|
6,2,8.5|
6,3,5.7|
6,4,5|
6,5,4.2|
6,6,6.4|
6,7,1.8|
7,0,6.3|
7,1,0.97|
7,2,2.8|
7,3,6.1|
7,4,3.5|
7,5,9.1|
7,6,7.8|
7,7,5.3|
];
constraint_x12_x11=[
0,0,2.5|
0,1,2.1|
0,2,2.9|
0,3,8.5|
0,4,5.6|
0,5,9|
0,6,1.7|
0,7,5.6|
1,0,2.7|
1,1,4.7|
1,2,6.1|
1,3,4.7|
1,4,3|
1,5,9.2|
1,6,2.7|
1,7,2|
2,0,6.9|
2,1,9.9|
2,2,0.49|
2,3,0.46|
2,4,2.9|
2,5,9.7|
2,6,0.46|
2,7,9|
3,0,5.8|
3,1,7|
3,2,2.2|
3,3,2.6|
3,4,7.7|
3,5,8.5|
3,6,5.6|
3,7,9.7|
4,0,9.5|
4,1,3.6|
4,2,10|
4,3,3.3|
4,4,1.2|
4,5,6.7|
4,6,0.51|
4,7,3.4|
5,0,5.4|
5,1,4.9|
5,2,4|
5,3,6.3|
5,4,7.5|
5,5,3.1|
5,6,1.1|
5,7,5.4|
6,0,4.1|
6,1,8|
6,2,9|
6,3,2.2|
6,4,9.9|
6,5,4.8|
6,6,3.4|
6,7,4.5|
7,0,4.6|
7,1,0.22|
7,2,7.6|
7,3,3.7|
7,4,4.9|
7,5,3.2|
7,6,7.8|
7,7,1.8|
];
constraint_x13_x9=[
0,0,6.2|
0,1,5.4|
0,2,2.4|
0,3,2.1|
0,4,8.1|
0,5,4.4|
0,6,7.9|
0,7,4.7|
1,0,2.9|
1,1,6.1|
1,2,7.6|
1,3,3.9|
1,4,5.9|
1,5,2.1|
1,6,1.6|
1,7,4.6|
2,0,1.6|
2,1,3.8|
2,2,0.4|
2,3,4|
2,4,8.5|
2,5,9|
2,6,7.3|
2,7,1.6|
3,0,3.5|
3,1,6.8|
3,2,7.9|
3,3,5.6|
3,4,0.49|
3,5,2.2|
3,6,1.9|
3,7,0.7|
4,0,9.6|
4,1,3.6|
4,2,5.5|
4,3,7|
4,4,0.56|
4,5,2.1|
4,6,3.9|
4,7,2.4|
5,0,9.8|
5,1,3|
5,2,9.6|
5,3,2.1|
5,4,8.6|
5,5,4|
5,6,7.5|
5,7,4.6|
6,0,9.2|
6,1,3.9|
6,2,8|
6,3,5.1|
6,4,8|
6,5,5.1|
6,6,8.5|
6,7,4.1|
7,0,4.4|
7,1,8.4|
7,2,5.8|
7,3,2.7|
7,4,1.8|
7,5,2.2|
7,6,7.1|
7,7,8|
];
constraint_x14_x10=[
0,0,3.9|
0,1,4.5|
0,2,7.3|
0,3,6.2|
0,4,1.4|
0,5,7.1|
0,6,8.5|
0,7,7.5|
1,0,5|
1,1,1.8|
1,2,9.4|
1,3,2.9|
1,4,3.1|
1,5,6.8|
1,6,6.1|
1,7,3.3|
2,0,4.7|
2,1,9.3|
2,2,3.7|
2,3,1.4|
2,4,4.2|
2,5,1.4|
2,6,5.9|
2,7,5.8|
3,0,1.7|
3,1,8.6|
3,2,4.6|
3,3,4.4|
3,4,7|
3,5,3.2|
3,6,5.9|
3,7,8.4|
4,0,9.3|
4,1,2.2|
4,2,4.9|
4,3,2.1|
4,4,4.7|
4,5,5.4|
4,6,6.3|
4,7,6.5|
5,0,0.19|
5,1,6.6|
5,2,5.1|
5,3,4.4|
5,4,2.5|
5,5,1.5|
5,6,2.6|
5,7,9.8|
6,0,8.6|
6,1,8.8|
6,2,6.3|
6,3,2.2|
6,4,10|
6,5,2.5|
6,6,1|
6,7,7.2|
7,0,8|
7,1,3.7|
7,2,2|
7,3,6.3|
7,4,6.9|
7,5,3.5|
7,6,6.5|
7,7,7.8|
];
constraint_x1_y1=[
0,0,0.66|
0,1,7.9|
0,2,4.6|
0,3,0.14|
0,4,5.1|
0,5,7.6|
0,6,1.3|
0,7,4.3|
1,0,2.8|
1,1,9.6|
1,2,4.4|
1,3,7.8|
1,4,5.2|
1,5,7.7|
1,6,2.1|
1,7,6.7|
2,0,9.2|
2,1,0.44|
2,2,0.51|
2,3,1.8|
2,4,8.8|
2,5,3.2|
2,6,1.2|
2,7,6|
3,0,0.076|
3,1,2.5|
3,2,9.4|
3,3,7.6|
3,4,8.7|
3,5,6.2|
3,6,3.9|
3,7,1.7|
4,0,3.1|
4,1,2.1|
4,2,2.3|
4,3,7|
4,4,7.8|
4,5,9.6|
4,6,3.7|
4,7,6.2|
5,0,5.9|
5,1,0.99|
5,2,1.3|
5,3,0.42|
5,4,2.9|
5,5,7.4|
5,6,8.8|
5,7,7|
6,0,8.8|
6,1,7.6|
6,2,1.2|
6,3,6.1|
6,4,9|
6,5,4.1|
6,6,2.8|
6,7,9.7|
7,0,1.7|
7,1,1.9|
7,2,6.3|
7,3,5.5|
7,4,1.4|
7,5,9.8|
7,6,6.8|
7,7,8.2|
];
constraint_x2_y2=[
0,0,5.1|
0,1,4.9|
0,2,7.1|
0,3,8.2|
0,4,3.9|
0,5,1.3|
0,6,0.7|
0,7,2.8|
1,0,2.5|
1,1,9.5|
1,2,4.6|
1,3,5.6|
1,4,0.99|
1,5,4.1|
1,6,6.3|
1,7,7.9|
2,0,1.7|
2,1,4.9|
2,2,9.7|
2,3,7.3|
2,4,2.2|
2,5,9|
2,6,2.7|
2,7,6.1|
3,0,6.4|
3,1,0.84|
3,2,2.7|
3,3,8.7|
3,4,7.7|
3,5,5.2|
3,6,2.5|
3,7,5.3|
4,0,7.5|
4,1,0.69|
4,2,9.3|
4,3,6.7|
4,4,5.1|
4,5,0.81|
4,6,1.2|
4,7,1.3|
5,0,7.5|
5,1,7.6|
5,2,1.7|
5,3,2.4|
5,4,1.4|
5,5,6.9|
5,6,1.9|
5,7,2.9|
6,0,8.6|
6,1,9.3|
6,2,6.5|
6,3,4.2|
6,4,3.1|
6,5,6.7|
6,6,1.8|
6,7,2.7|
7,0,2.2|
7,1,1.6|
7,2,5.8|
7,3,4.3|
7,4,3.1|
7,5,6.1|
7,6,1.7|
7,7,5.1|
];
constraint_x3_y3=[
0,0,6.7|
0,1,0.95|
0,2,4.4|
0,3,1.1|
0,4,7.7|
0,5,3.1|
0,6,4.5|
0,7,7.4|
1,0,3.2|
1,1,9.9|
1,2,7.4|
1,3,2.5|
1,4,2.3|
1,5,6.6|
1,6,1.5|
1,7,6.9|
2,0,5.7|
2,1,8.1|
2,2,4.1|
2,3,6|
2,4,8.8|
2,5,6.6|
2,6,9.5|
2,7,3.2|
3,0,4|
3,1,8|
3,2,3.2|
3,3,5|
3,4,2.9|
3,5,8.3|
3,6,7.1|
3,7,4.6|
4,0,4.5|
4,1,9.4|
4,2,0.55|
4,3,0.36|
4,4,3.6|
4,5,5.1|
4,6,2.6|
4,7,3.8|
5,0,7.8|
5,1,2|
5,2,1|
5,3,4.5|
5,4,8.9|
5,5,6.7|
5,6,6.1|
5,7,2.3|
6,0,7.1|
6,1,8.1|
6,2,9.9|
6,3,2.8|
6,4,5.1|
6,5,7.3|
6,6,1.4|
6,7,2.9|
7,0,5.6|
7,1,3.5|
7,2,2.1|
7,3,4.6|
7,4,9.1|
7,5,0.12|
7,6,7.1|
7,7,1.3|
];
constraint_x4_y4=[
0,0,4.3|
0,1,1.3|
0,2,0.81|
0,3,8|
0,4,6.4|
0,5,6.9|
0,6,7.6|
0,7,4.1|
1,0,0.66|
1,1,3.5|
1,2,5.6|
1,3,8.6|
1,4,2.4|
1,5,8.7|
1,6,2.3|
1,7,6.3|
2,0,6.3|
2,1,2.9|
2,2,1.8|
2,3,9|
2,4,1.1|
2,5,3.2|
2,6,0.14|
2,7,5|
3,0,5.9|
3,1,3.5|
3,2,7.6|
3,3,4|
3,4,8.6|
3,5,4.2|
3,6,6.3|
3,7,0.062|
4,0,0.62|
4,1,4.2|
4,2,5.7|
4,3,6|
4,4,9.2|
4,5,8.8|
4,6,1.6|
4,7,7.6|
5,0,3.6|
5,1,8.7|
5,2,3.5|
5,3,6.9|
5,4,1.6|
5,5,2.7|
5,6,6.2|
5,7,6.8|
6,0,8.1|
6,1,4.1|
6,2,5.3|
6,3,8.9|
6,4,2.7|
6,5,8.5|
6,6,8.7|
6,7,2.6|
7,0,9.4|
7,1,7.6|
7,2,9.6|
7,3,0.82|
7,4,8|
7,5,7.8|
7,6,4.7|
7,7,2.9|
];
constraint_x5_y5=[
0,0,6.1|
0,1,2.6|
0,2,2.6|
0,3,0.035|
0,4,1.2|
0,5,8.5|
0,6,7.6|
0,7,6.2|
1,0,8.3|
1,1,1.5|
1,2,8.1|
1,3,5.1|
1,4,4.8|
1,5,5.9|
1,6,0.4|
1,7,9.2|
2,0,4.2|
2,1,6.7|
2,2,6.2|
2,3,8.7|
2,4,1.5|
2,5,10|
2,6,2.6|
2,7,0.59|
3,0,4.1|
3,1,5.5|
3,2,9.5|
3,3,0.5|
3,4,7.2|
3,5,1.7|
3,6,6.1|
3,7,0.42|
4,0,8.9|
4,1,7.7|
4,2,3.7|
4,3,1.2|
4,4,0.87|
4,5,5.4|
4,6,5.9|
4,7,1.8|
5,0,8.2|
5,1,5.6|
5,2,3.4|
5,3,6.9|
5,4,2.2|
5,5,7.3|
5,6,9.6|
5,7,0.34|
6,0,1.4|
6,1,0.37|
6,2,9.4|
6,3,7.8|
6,4,9.1|
6,5,6.8|
6,6,0.45|
6,7,3.9|
7,0,4.5|
7,1,6.9|
7,2,7.7|
7,3,7.5|
7,4,5.8|
7,5,3.2|
7,6,1.9|
7,7,7.2|
];
constraint_x6_y6=[
0,0,4.1|
0,1,7.8|
0,2,1|
0,3,2.9|
0,4,3.7|
0,5,8|
0,6,6.6|
0,7,4.9|
1,0,5.3|
1,1,4.6|
1,2,3.4|
1,3,5.2|
1,4,7.6|
1,5,10|
1,6,3.2|
1,7,7.9|
2,0,5.4|
2,1,5.4|
2,2,8|
2,3,4.9|
2,4,10|
2,5,5.7|
2,6,7.8|
2,7,4.7|
3,0,2|
3,1,8.7|
3,2,9.7|
3,3,2.4|
3,4,4.8|
3,5,2.2|
3,6,0.9|
3,7,10|
4,0,7.9|
4,1,6.5|
4,2,9.3|
4,3,0.56|
4,4,8.2|
4,5,0.48|
4,6,8.2|
4,7,0.45|
5,0,4.9|
5,1,6.1|
5,2,4.1|
5,3,5.6|
5,4,7.5|
5,5,0.95|
5,6,9.6|
5,7,9.5|
6,0,2.2|
6,1,4.4|
6,2,0.67|
6,3,7.9|
6,4,3.7|
6,5,1.6|
6,6,0.49|
6,7,7|
7,0,1.1|
7,1,3.5|
7,2,4|
7,3,3.5|
7,4,7|
7,5,5.6|
7,6,4|
7,7,5.1|
];
initial_distribution_y1=[0.0091,0.05,0.1,0.081,0.055,0.25,0.21,0.25];
initial_distribution_y2=[0.035,0.22,0.0094,0.2,0.098,0.22,0.064,0.15];
initial_distribution_y3=[0.11,0.033,0.022,0.18,0.18,0.23,0.18,0.057];
initial_distribution_y4=[0.079,0.15,0.19,0.015,0.18,0.17,0.16,0.063];
initial_distribution_y5=[0.14,0.16,0.17,0.025,0.18,0.056,0.24,0.031];
initial_distribution_y6=[0.11,0.024,0.019,0.21,0.18,0.19,0.19,0.084];
transition_y1=[
0.19,0.037,0.08,0.19,0.099,0.11,0.19,0.1|
0.056,0.13,0.13,0.068,0.018,0.25,0.15,0.19|
0.12,0.17,0.032,0.16,0.013,0.18,0.18,0.14|
0.097,0.077,0.099,0.14,0.18,0.12,0.22,0.063|
0.21,0.074,0.24,0.016,0.055,0.23,0.13,0.062|
0.094,0.11,0.2,0.033,0.13,0.23,0.039,0.16|
0.13,0.087,0.21,0.2,0.048,0.16,0.098,0.071|
0.093,0.083,0.097,0.082,0.17,0.15,0.1,0.23|
];
transition_y2=[
0.083,0.095,0.097,0.14,0.15,0.14,0.12,0.18|
0.14,0.058,0.034,0.12,0.043,0.15,0.23,0.24|
0.075,0.17,0.23,0.24,0.068,0.077,0.063,0.075|
0.12,0.073,0.062,0.038,0.17,0.13,0.18,0.21|
0.13,0.14,0.11,0.14,0.14,0.12,0.14,0.069|
0.11,0.22,0.1,0.12,0.18,0.077,0.12,0.064|
0.049,0.13,0.15,0.069,0.13,0.17,0.15,0.14|
0.11,0.073,0.08,0.17,0.11,0.18,0.18,0.088|
];
transition_y3=[
0.2,0.13,0.074,0.07,0.029,0.11,0.22,0.16|
0.15,0.16,0.13,0.13,0.15,0.13,0.08,0.071|
0.18,0.11,0.12,0.15,0.079,0.14,0.017,0.2|
0.076,0.22,0.078,0.23,0.012,0.091,0.052,0.24|
0.087,0.13,0.1,0.033,0.21,0.19,0.031,0.22|
0.095,0.045,0.16,0.19,0.16,0.15,0.043,0.16|
0.039,0.058,0.11,0.14,0.093,0.18,0.18,0.21|
0.2,0.021,0.028,0.066,0.25,0.28,0.029,0.13|
];
transition_y4=[
0.14,0.045,0.12,0.12,0.23,0.11,0.18,0.061|
0.13,0.098,0.055,0.018,0.24,0.22,0.18,0.066|
0.067,0.13,0.055,0.2,0.092,0.16,0.24,0.052|
0.17,0.12,0.0086,0.19,0.021,0.068,0.21,0.22|
0.014,0.066,0.08,0.21,0.17,0.11,0.14,0.21|
0.21,0.15,0.026,0.097,0.16,0.12,0.084,0.15|
0.0064,0.18,0.22,0.12,0.23,0.066,0.15,0.03|
0.2,0.016,0.18,0.19,0.18,0.12,0.062,0.041|
];
transition_y5=[
0.093,0.079,0.16,0.051,0.033,0.24,0.13,0.21|
0.034,0.2,0.24,0.062,0.025,0.21,0.15,0.089|
0.15,0.23,0.14,0.11,0.13,0.067,0.085,0.088|
0.089,0.25,0.026,0.027,0.087,0.2,0.23,0.093|
0.22,0.029,0.17,0.091,0.067,0.21,0.14,0.086|
0.0032,0.031,0.2,0.19,0.19,0.2,0.18,0.015|
0.046,0.057,0.36,0.2,0.089,0.088,0.0054,0.15|
0.14,0.072,0.029,0.28,0.15,0.22,0.047,0.063|
];
transition_y6=[
0.078,0.15,0.14,0.091,0.077,0.12,0.17,0.17|
0.16,0.17,0.2,0.13,0.038,0.11,0.03,0.18|
0.12,0.18,0.15,0.13,0.15,0.12,0.1,0.044|
0.1,0.17,0.11,0.18,0.16,0.064,0.1,0.11|
0.18,0.19,0.086,0.077,0.1,0.2,0.017,0.15|
0.08,0.024,0.15,0.27,0.24,0.16,0.046,0.019|
0.11,0.16,0.13,0.096,0.16,0.082,0.16,0.098|
0.26,0.072,0.23,0.097,0.054,0.14,0.12,0.034|
];
